(set-logic QF_S)
(declare-fun var0 () Int)
(declare-fun var1 () Int)
(declare-fun var2 () String)
(declare-fun var3 () Int)
(declare-fun var4 () String)
(declare-fun var5 () Int)
(declare-fun var6 () String)
(declare-fun var7 () String)
(assert (<= var0 var1))
(assert (>= (str.len (str.at var2 var3)) (str.to.int (str.at var4 var5))))
(assert (str.suffixof (str.substr var6 var3 18) (str.at var7 var1)))
(assert (str.prefixof (str.substr var6 119 var3) (str.at var4 93)))
(check-sat)